\ Model model
\ LP format - for model browsing. Use MPS format to capture full model detail.
Minimize
  2 u_6 + 0 t_(0,_0) + 0 t_(0,_1) + ad_(1,_0) + ad_(1,_1) + ad_(2,_0)
   + ad_(2,_1) + ad_(3,_0) + ad_(3,_1) + ad_(4,_0) + ad_(4,_1) + ad_(5,_0)
   + ad_(5,_1) + 0 w_(7,_0) + 0 v_(7,_0) + 0 w_(7,_1) + 0 v_(7,_1)
   - 30.3 Constant
Subject To
 obj_0: - ad_(7,_0) + a_max >= 0
 obj_1: - ad_(7,_1) + a_max >= 0
 conserv2_6: y_(0,_1,_0) + y_(0,_2,_0) + y_(0,_3,_0) + y_(0,_4,_0)
   + y_(0,_5,_0) + y_(0,_6,_0) - y_(1,_7,_0) - y_(2,_7,_0) - y_(3,_7,_0)
   - y_(4,_7,_0) - y_(5,_7,_0) - y_(6,_7,_0) = 0
 conserv2_6: y_(0,_1,_1) + y_(0,_2,_1) + y_(0,_3,_1) + y_(0,_4,_1)
   + y_(0,_5,_1) + y_(0,_6,_1) - y_(1,_7,_1) - y_(2,_7,_1) - y_(3,_7,_1)
   - y_(4,_7,_1) - y_(5,_7,_1) - y_(6,_7,_1) = 0
 conserv4_0: - y_(0,_1,_0) + y_(1,_7,_0) + y_(1,_2,_0) + y_(1,_3,_0)
   + y_(1,_6,_0) + y_(1,_5,_0) - y_(2,_1,_0) - y_(3,_1,_0) - y_(5,_1,_0)
   - y_(6,_1,_0) = 0
 conserv4_1: - y_(0,_1,_1) + y_(1,_7,_1) + y_(1,_2,_1) + y_(1,_3,_1)
   + y_(1,_6,_1) + y_(1,_5,_1) - y_(2,_1,_1) - y_(3,_1,_1) - y_(5,_1,_1)
   - y_(6,_1,_1) = 0
 conserv4_2: - y_(0,_2,_0) - y_(1,_2,_0) + y_(2,_7,_0) + y_(2,_1,_0)
   + y_(2,_3,_0) + y_(2,_5,_0) + y_(2,_6,_0) - y_(3,_2,_0) - y_(5,_2,_0)
   - y_(6,_2,_0) = 0
 conserv4_3: - y_(0,_2,_1) - y_(1,_2,_1) + y_(2,_7,_1) + y_(2,_1,_1)
   + y_(2,_3,_1) + y_(2,_5,_1) + y_(2,_6,_1) - y_(3,_2,_1) - y_(5,_2,_1)
   - y_(6,_2,_1) = 0
 conserv4_4: - y_(0,_3,_0) - y_(1,_3,_0) - y_(2,_3,_0) + y_(3,_7,_0)
   + y_(3,_1,_0) + y_(3,_2,_0) + y_(3,_5,_0) + y_(3,_6,_0) + y_(3,_4,_0)
   - y_(4,_3,_0) - y_(5,_3,_0) - y_(6,_3,_0) = 0
 conserv4_5: - y_(0,_3,_1) - y_(1,_3,_1) - y_(2,_3,_1) + y_(3,_7,_1)
   + y_(3,_1,_1) + y_(3,_2,_1) + y_(3,_5,_1) + y_(3,_6,_1) + y_(3,_4,_1)
   - y_(4,_3,_1) - y_(5,_3,_1) - y_(6,_3,_1) = 0
 conserv4_6: - y_(0,_4,_0) - y_(3,_4,_0) + y_(4,_7,_0) + y_(4,_3,_0)
   + y_(4,_6,_0) - y_(6,_4,_0) = 0
 conserv4_7: - y_(0,_4,_1) - y_(3,_4,_1) + y_(4,_7,_1) + y_(4,_3,_1)
   + y_(4,_6,_1) - y_(6,_4,_1) = 0
 conserv4_8: - y_(0,_5,_0) - y_(1,_5,_0) - y_(2,_5,_0) - y_(3,_5,_0)
   + y_(5,_7,_0) + y_(5,_2,_0) + y_(5,_3,_0) + y_(5,_1,_0) + y_(5,_6,_0)
   - y_(6,_5,_0) = 0
 conserv4_9: - y_(0,_5,_1) - y_(1,_5,_1) - y_(2,_5,_1) - y_(3,_5,_1)
   + y_(5,_7,_1) + y_(5,_2,_1) + y_(5,_3,_1) + y_(5,_1,_1) + y_(5,_6,_1)
   - y_(6,_5,_1) = 0
 conserv4_10: - y_(0,_6,_0) - y_(1,_6,_0) - y_(2,_6,_0) - y_(3,_6,_0)
   - y_(4,_6,_0) - y_(5,_6,_0) + y_(6,_7,_0) + y_(6,_1,_0) + y_(6,_2,_0)
   + y_(6,_3,_0) + y_(6,_5,_0) + y_(6,_4,_0) = 0
 conserv4_11: - y_(0,_6,_1) - y_(1,_6,_1) - y_(2,_6,_1) - y_(3,_6,_1)
   - y_(4,_6,_1) - y_(5,_6,_1) + y_(6,_7,_1) + y_(6,_1,_1) + y_(6,_2,_1)
   + y_(6,_3,_1) + y_(6,_5,_1) + y_(6,_4,_1) = 0
 servonce_0: y_(0,_1,_0) + y_(0,_1,_1) + y_(2,_1,_0) + y_(2,_1,_1)
   + y_(3,_1,_0) + y_(3,_1,_1) + y_(5,_1,_0) + y_(5,_1,_1) + y_(6,_1,_0)
   + y_(6,_1,_1) = 1
 servonce_1: y_(0,_2,_0) + y_(0,_2,_1) + y_(1,_2,_0) + y_(1,_2,_1)
   + y_(3,_2,_0) + y_(3,_2,_1) + y_(5,_2,_0) + y_(5,_2,_1) + y_(6,_2,_0)
   + y_(6,_2,_1) = 1
 servonce_2: y_(0,_3,_0) + y_(0,_3,_1) + y_(1,_3,_0) + y_(1,_3,_1)
   + y_(2,_3,_0) + y_(2,_3,_1) + y_(4,_3,_0) + y_(4,_3,_1) + y_(5,_3,_0)
   + y_(5,_3,_1) + y_(6,_3,_0) + y_(6,_3,_1) = 1
 servonce_3: y_(0,_4,_0) + y_(0,_4,_1) + y_(3,_4,_0) + y_(3,_4,_1)
   + y_(6,_4,_0) + y_(6,_4,_1) = 1
 servonce_4: y_(0,_5,_0) + y_(0,_5,_1) + y_(1,_5,_0) + y_(1,_5,_1)
   + y_(2,_5,_0) + y_(2,_5,_1) + y_(3,_5,_0) + y_(3,_5,_1) + y_(6,_5,_0)
   + y_(6,_5,_1) = 1
 truck_once_0: y_(0,_1,_0) + y_(0,_2,_0) + y_(0,_3,_0) + y_(0,_4,_0)
   + y_(0,_5,_0) + y_(0,_6,_0) <= 1
 truck_once_0: y_(0,_1,_1) + y_(0,_2,_1) + y_(0,_3,_1) + y_(0,_4,_1)
   + y_(0,_5,_1) + y_(0,_6,_1) <= 1
 linking_0: y_(0,_1,_0) <= 1
 linking_1: y_(0,_1,_1) <= 1
 linking_2: y_(0,_2,_0) <= 1
 linking_3: y_(0,_2,_1) <= 1
 linking_4: y_(0,_3,_0) <= 1
 linking_5: y_(0,_3,_1) <= 1
 linking_6: y_(0,_4,_0) <= 1
 linking_7: y_(0,_4,_1) <= 1
 linking_8: y_(0,_5,_0) <= 1
 linking_9: y_(0,_5,_1) <= 1
 linking_10: y_(0,_6,_0) <= 1
 linking_11: y_(0,_6,_1) <= 1
 linking_12: y_(1,_7,_0) <= 1
 linking_13: y_(1,_7,_1) <= 1
 linking_14: y_(1,_2,_0) <= 1
 linking_15: y_(1,_2,_1) <= 1
 linking_16: y_(1,_3,_0) <= 1
 linking_17: y_(1,_3,_1) <= 1
 linking_18: y_(1,_6,_0) <= 1
 linking_19: y_(1,_6,_1) <= 1
 linking_20: y_(1,_5,_0) <= 1
 linking_21: y_(1,_5,_1) <= 1
 linking_22: y_(2,_7,_0) <= 1
 linking_23: y_(2,_7,_1) <= 1
 linking_24: y_(2,_1,_0) <= 1
 linking_25: y_(2,_1,_1) <= 1
 linking_26: y_(2,_3,_0) <= 1
 linking_27: y_(2,_3,_1) <= 1
 linking_28: y_(2,_5,_0) <= 1
 linking_29: y_(2,_5,_1) <= 1
 linking_30: y_(2,_6,_0) <= 1
 linking_31: y_(2,_6,_1) <= 1
 linking_32: y_(3,_7,_0) <= 1
 linking_33: y_(3,_7,_1) <= 1
 linking_34: y_(3,_1,_0) <= 1
 linking_35: y_(3,_1,_1) <= 1
 linking_36: y_(3,_2,_0) <= 1
 linking_37: y_(3,_2,_1) <= 1
 linking_38: y_(3,_5,_0) <= 1
 linking_39: y_(3,_5,_1) <= 1
 linking_40: y_(3,_6,_0) <= 1
 linking_41: y_(3,_6,_1) <= 1
 linking_42: y_(3,_4,_0) <= 1
 linking_43: y_(3,_4,_1) <= 1
 linking_44: y_(4,_7,_0) <= 1
 linking_45: y_(4,_7,_1) <= 1
 linking_46: y_(4,_3,_0) <= 1
 linking_47: y_(4,_3,_1) <= 1
 linking_48: y_(4,_6,_0) <= 1
 linking_49: y_(4,_6,_1) <= 1
 linking_50: y_(5,_7,_0) <= 1
 linking_51: y_(5,_7,_1) <= 1
 linking_52: y_(5,_2,_0) <= 1
 linking_53: y_(5,_2,_1) <= 1
 linking_54: y_(5,_3,_0) <= 1
 linking_55: y_(5,_3,_1) <= 1
 linking_56: y_(5,_1,_0) <= 1
 linking_57: y_(5,_1,_1) <= 1
 linking_58: y_(5,_6,_0) <= 1
 linking_59: y_(5,_6,_1) <= 1
 linking_60: y_(6,_7,_0) <= 1
 linking_61: y_(6,_7,_1) <= 1
 linking_62: y_(6,_1,_0) <= 1
 linking_63: y_(6,_1,_1) <= 1
 linking_64: y_(6,_2,_0) <= 1
 linking_65: y_(6,_2,_1) <= 1
 linking_66: y_(6,_3,_0) <= 1
 linking_67: y_(6,_3,_1) <= 1
 linking_68: y_(6,_5,_0) <= 1
 linking_69: y_(6,_5,_1) <= 1
 linking_70: y_(6,_4,_0) <= 1
 linking_71: y_(6,_4,_1) <= 1
 sync_0: y_(0,_6,_0) + y_(0,_6,_1) + y_(1,_6,_0) + y_(1,_6,_1)
   + y_(2,_6,_0) + y_(2,_6,_1) + y_(3,_6,_0) + y_(3,_6,_1) + y_(4,_6,_0)
   + y_(4,_6,_1) + y_(5,_6,_0) + y_(5,_6,_1) - 99999 u_6 <= 0
 drone_endu1_0: t_(1,_0) <= 150
 drone_endu1_1: t_(1,_1) <= 150
 drone_endu1_2: t_(2,_0) <= 150
 drone_endu1_3: t_(2,_1) <= 150
 drone_endu1_4: t_(3,_0) <= 150
 drone_endu1_5: t_(3,_1) <= 150
 drone_endu1_6: t_(4,_0) <= 150
 drone_endu1_7: t_(4,_1) <= 150
 drone_endu1_8: t_(5,_0) <= 150
 drone_endu1_9: t_(5,_1) <= 150
 drone_endu1_10: t_(6,_0) <= 150
 drone_endu1_11: t_(6,_1) <= 150
 drone_endu1_12: t_(7,_0) <= 150
 drone_endu1_13: t_(7,_1) <= 150
 drone_endu2_14: - 99999 y_(1,_7,_0) - t_(1,_0) + t_(7,_0) >= -99993
 drone_endu2_15: - 99999 y_(1,_7,_1) - t_(1,_1) + t_(7,_1) >= -99993
 drone_endu2_16: - 99999 y_(1,_2,_0) - t_(1,_0) + t_(2,_0) >= -99993
 drone_endu2_17: - 99999 y_(1,_2,_1) - t_(1,_1) + t_(2,_1) >= -99993
 drone_endu2_18: - 99999 y_(1,_3,_0) - t_(1,_0) + t_(3,_0) >= -99992
 drone_endu2_19: - 99999 y_(1,_3,_1) - t_(1,_1) + t_(3,_1) >= -99992
 drone_endu2_20: - 99999 y_(1,_6,_0) - t_(1,_0) + t_(6,_0) >= -99990
 drone_endu2_21: - 99999 y_(1,_6,_1) - t_(1,_1) + t_(6,_1) >= -99990
 drone_endu2_22: - 99999 y_(1,_5,_0) - t_(1,_0) + t_(5,_0) >= -99992
 drone_endu2_23: - 99999 y_(1,_5,_1) - t_(1,_1) + t_(5,_1) >= -99992
 drone_endu2_24: - 99999 y_(2,_7,_0) - t_(2,_0) + t_(7,_0) >= -99990
 drone_endu2_25: - 99999 y_(2,_7,_1) - t_(2,_1) + t_(7,_1) >= -99990
 drone_endu2_26: - 99999 y_(2,_1,_0) + t_(1,_0) - t_(2,_0) >= -99993
 drone_endu2_27: - 99999 y_(2,_1,_1) + t_(1,_1) - t_(2,_1) >= -99993
 drone_endu2_28: - 99999 y_(2,_3,_0) - t_(2,_0) + t_(3,_0) >= -99991
 drone_endu2_29: - 99999 y_(2,_3,_1) - t_(2,_1) + t_(3,_1) >= -99991
 drone_endu2_30: - 99999 y_(2,_5,_0) - t_(2,_0) + t_(5,_0) >= -99992
 drone_endu2_31: - 99999 y_(2,_5,_1) - t_(2,_1) + t_(5,_1) >= -99992
 drone_endu2_32: - 99999 y_(2,_6,_0) - t_(2,_0) + t_(6,_0) >= -99998
 drone_endu2_33: - 99999 y_(2,_6,_1) - t_(2,_1) + t_(6,_1) >= -99998
 drone_endu2_34: - 99999 y_(3,_7,_0) - t_(3,_0) + t_(7,_0) >= -99993
 drone_endu2_35: - 99999 y_(3,_7,_1) - t_(3,_1) + t_(7,_1) >= -99993
 drone_endu2_36: - 99999 y_(3,_1,_0) + t_(1,_0) - t_(3,_0) >= -99992
 drone_endu2_37: - 99999 y_(3,_1,_1) + t_(1,_1) - t_(3,_1) >= -99992
 drone_endu2_38: - 99999 y_(3,_2,_0) + t_(2,_0) - t_(3,_0) >= -99991
 drone_endu2_39: - 99999 y_(3,_2,_1) + t_(2,_1) - t_(3,_1) >= -99991
 drone_endu2_40: - 99999 y_(3,_5,_0) - t_(3,_0) + t_(5,_0) >= -99990
 drone_endu2_41: - 99999 y_(3,_5,_1) - t_(3,_1) + t_(5,_1) >= -99990
 drone_endu2_42: - 99999 y_(3,_6,_0) - t_(3,_0) + t_(6,_0) >= -99998.3
 drone_endu2_43: - 99999 y_(3,_6,_1) - t_(3,_1) + t_(6,_1) >= -99998.3
 drone_endu2_44: - 99999 y_(3,_4,_0) - t_(3,_0) + t_(4,_0) >= -99989
 drone_endu2_45: - 99999 y_(3,_4,_1) - t_(3,_1) + t_(4,_1) >= -99989
 drone_endu2_46: - 99999 y_(4,_7,_0) - t_(4,_0) + t_(7,_0) >= -99992
 drone_endu2_47: - 99999 y_(4,_7,_1) - t_(4,_1) + t_(7,_1) >= -99992
 drone_endu2_48: - 99999 y_(4,_3,_0) + t_(3,_0) - t_(4,_0) >= -99989
 drone_endu2_49: - 99999 y_(4,_3,_1) + t_(3,_1) - t_(4,_1) >= -99989
 drone_endu2_50: - 99999 y_(4,_6,_0) - t_(4,_0) + t_(6,_0) >= -99998.3
 drone_endu2_51: - 99999 y_(4,_6,_1) - t_(4,_1) + t_(6,_1) >= -99998.3
 drone_endu2_52: - 99999 y_(5,_7,_0) - t_(5,_0) + t_(7,_0) >= -99994
 drone_endu2_53: - 99999 y_(5,_7,_1) - t_(5,_1) + t_(7,_1) >= -99994
 drone_endu2_54: - 99999 y_(5,_2,_0) + t_(2,_0) - t_(5,_0) >= -99992
 drone_endu2_55: - 99999 y_(5,_2,_1) + t_(2,_1) - t_(5,_1) >= -99992
 drone_endu2_56: - 99999 y_(5,_3,_0) + t_(3,_0) - t_(5,_0) >= -99990
 drone_endu2_57: - 99999 y_(5,_3,_1) + t_(3,_1) - t_(5,_1) >= -99990
 drone_endu2_58: - 99999 y_(5,_1,_0) + t_(1,_0) - t_(5,_0) >= -99992
 drone_endu2_59: - 99999 y_(5,_1,_1) + t_(1,_1) - t_(5,_1) >= -99992
 drone_endu2_60: - 99999 y_(5,_6,_0) - t_(5,_0) + t_(6,_0) >= -99998.5
 drone_endu2_61: - 99999 y_(5,_6,_1) - t_(5,_1) + t_(6,_1) >= -99998.5
 drone_endu3_62: - 99999 y_(6,_7,_0) + t_(7,_0) >= -99990
 drone_endu3_63: - 99999 y_(6,_7,_1) + t_(7,_1) >= -99990
 drone_endu3_64: - 99999 y_(6,_1,_0) + t_(1,_0) >= -99990
 drone_endu3_65: - 99999 y_(6,_1,_1) + t_(1,_1) >= -99990
 drone_endu3_66: - 99999 y_(6,_2,_0) + t_(2,_0) >= -99998
 drone_endu3_67: - 99999 y_(6,_2,_1) + t_(2,_1) >= -99998
 drone_endu3_68: - 99999 y_(6,_3,_0) + t_(3,_0) >= -99998.3
 drone_endu3_69: - 99999 y_(6,_3,_1) + t_(3,_1) >= -99998.3
 drone_endu3_70: - 99999 y_(6,_5,_0) + t_(5,_0) >= -99998.5
 drone_endu3_71: - 99999 y_(6,_5,_1) + t_(5,_1) >= -99998.5
 drone_endu3_72: - 99999 y_(6,_4,_0) + t_(4,_0) >= -99998.3
 drone_endu3_73: - 99999 y_(6,_4,_1) + t_(4,_1) >= -99998.3
 drone_endu3_74: - 99999 y_(0,_1,_0) + t_(1,_0) >= -99993
 drone_endu3_75: - 99999 y_(0,_1,_1) + t_(1,_1) >= -99993
 drone_endu3_76: - 99999 y_(0,_2,_0) + t_(2,_0) >= -99992
 drone_endu3_77: - 99999 y_(0,_2,_1) + t_(2,_1) >= -99992
 drone_endu3_78: - 99999 y_(0,_3,_0) + t_(3,_0) >= -99994
 drone_endu3_79: - 99999 y_(0,_3,_1) + t_(3,_1) >= -99994
 drone_endu3_80: - 99999 y_(0,_4,_0) + t_(4,_0) >= -99992
 drone_endu3_81: - 99999 y_(0,_4,_1) + t_(4,_1) >= -99992
 drone_endu3_82: - 99999 y_(0,_5,_0) + t_(5,_0) >= -99991
 drone_endu3_83: - 99999 y_(0,_5,_1) + t_(5,_1) >= -99991
 drone_endu3_84: - 99999 y_(0,_6,_0) + t_(6,_0) >= -99991
 drone_endu3_85: - 99999 y_(0,_6,_1) + t_(6,_1) >= -99991
 drone_load1_0: w_(1,_0) <= 500
 drone_load1_1: w_(1,_1) <= 500
 drone_load1_2: w_(2,_0) <= 500
 drone_load1_3: w_(2,_1) <= 500
 drone_load1_4: w_(3,_0) <= 500
 drone_load1_5: w_(3,_1) <= 500
 drone_load1_6: w_(4,_0) <= 500
 drone_load1_7: w_(4,_1) <= 500
 drone_load1_8: w_(5,_0) <= 500
 drone_load1_9: w_(5,_1) <= 500
 drone_load2_10: - 99999 y_(0,_1,_0) - w_(0,_0) + w_(1,_0)
   >= -99997.64983952712
 drone_load2_11: - 99999 y_(0,_1,_1) - w_(0,_1) + w_(1,_1)
   >= -99997.64983952712
 drone_load2_12: - 99999 y_(2,_1,_0) + w_(1,_0) - w_(2,_0)
   >= -99997.64983952712
 drone_load2_13: - 99999 y_(2,_1,_1) + w_(1,_1) - w_(2,_1)
   >= -99997.64983952712
 drone_load2_14: - 99999 y_(3,_1,_0) + w_(1,_0) - w_(3,_0)
   >= -99997.64983952712
 drone_load2_15: - 99999 y_(3,_1,_1) + w_(1,_1) - w_(3,_1)
   >= -99997.64983952712
 drone_load2_16: - 99999 y_(6,_1,_0) + w_(1,_0) - w_(6,_0)
   >= -99997.64983952712
 drone_load2_17: - 99999 y_(6,_1,_1) + w_(1,_1) - w_(6,_1)
   >= -99997.64983952712
 drone_load2_18: - 99999 y_(5,_1,_0) + w_(1,_0) - w_(5,_0)
   >= -99997.64983952712
 drone_load2_19: - 99999 y_(5,_1,_1) + w_(1,_1) - w_(5,_1)
   >= -99997.64983952712
 drone_load2_20: - 99999 y_(0,_2,_0) - w_(0,_0) + w_(2,_0)
   >= -99997.32844231173
 drone_load2_21: - 99999 y_(0,_2,_1) - w_(0,_1) + w_(2,_1)
   >= -99997.32844231173
 drone_load2_22: - 99999 y_(1,_2,_0) - w_(1,_0) + w_(2,_0)
   >= -99997.32844231173
 drone_load2_23: - 99999 y_(1,_2,_1) - w_(1,_1) + w_(2,_1)
   >= -99997.32844231173
 drone_load2_24: - 99999 y_(3,_2,_0) + w_(2,_0) - w_(3,_0)
   >= -99997.32844231173
 drone_load2_25: - 99999 y_(3,_2,_1) + w_(2,_1) - w_(3,_1)
   >= -99997.32844231173
 drone_load2_26: - 99999 y_(5,_2,_0) + w_(2,_0) - w_(5,_0)
   >= -99997.32844231173
 drone_load2_27: - 99999 y_(5,_2,_1) + w_(2,_1) - w_(5,_1)
   >= -99997.32844231173
 drone_load2_28: - 99999 y_(6,_2,_0) + w_(2,_0) - w_(6,_0)
   >= -99997.32844231173
 drone_load2_29: - 99999 y_(6,_2,_1) + w_(2,_1) - w_(6,_1)
   >= -99997.32844231173
 drone_load2_30: - 99999 y_(0,_3,_0) - w_(0,_0) + w_(3,_0)
   >= -99996.94888828519
 drone_load2_31: - 99999 y_(0,_3,_1) - w_(0,_1) + w_(3,_1)
   >= -99996.94888828519
 drone_load2_32: - 99999 y_(1,_3,_0) - w_(1,_0) + w_(3,_0)
   >= -99996.94888828519
 drone_load2_33: - 99999 y_(1,_3,_1) - w_(1,_1) + w_(3,_1)
   >= -99996.94888828519
 drone_load2_34: - 99999 y_(2,_3,_0) - w_(2,_0) + w_(3,_0)
   >= -99996.94888828519
 drone_load2_35: - 99999 y_(2,_3,_1) - w_(2,_1) + w_(3,_1)
   >= -99996.94888828519
 drone_load2_36: - 99999 y_(5,_3,_0) + w_(3,_0) - w_(5,_0)
   >= -99996.94888828519
 drone_load2_37: - 99999 y_(5,_3,_1) + w_(3,_1) - w_(5,_1)
   >= -99996.94888828519
 drone_load2_38: - 99999 y_(6,_3,_0) + w_(3,_0) - w_(6,_0)
   >= -99996.94888828519
 drone_load2_39: - 99999 y_(6,_3,_1) + w_(3,_1) - w_(6,_1)
   >= -99996.94888828519
 drone_load2_40: - 99999 y_(4,_3,_0) + w_(3,_0) - w_(4,_0)
   >= -99996.94888828519
 drone_load2_41: - 99999 y_(4,_3,_1) + w_(3,_1) - w_(4,_1)
   >= -99996.94888828519
 drone_load2_42: - 99999 y_(0,_4,_0) - w_(0,_0) + w_(4,_0)
   >= -99996.44883496335
 drone_load2_43: - 99999 y_(0,_4,_1) - w_(0,_1) + w_(4,_1)
   >= -99996.44883496335
 drone_load2_44: - 99999 y_(3,_4,_0) - w_(3,_0) + w_(4,_0)
   >= -99996.44883496335
 drone_load2_45: - 99999 y_(3,_4,_1) - w_(3,_1) + w_(4,_1)
   >= -99996.44883496335
 drone_load2_46: - 99999 y_(6,_4,_0) + w_(4,_0) - w_(6,_0)
   >= -99996.44883496335
 drone_load2_47: - 99999 y_(6,_4,_1) + w_(4,_1) - w_(6,_1)
   >= -99996.44883496335
 drone_load2_48: - 99999 y_(0,_5,_0) - w_(0,_0) + w_(5,_0)
   >= -99994.84888237804
 drone_load2_49: - 99999 y_(0,_5,_1) - w_(0,_1) + w_(5,_1)
   >= -99994.84888237804
 drone_load2_50: - 99999 y_(2,_5,_0) - w_(2,_0) + w_(5,_0)
   >= -99994.84888237804
 drone_load2_51: - 99999 y_(2,_5,_1) - w_(2,_1) + w_(5,_1)
   >= -99994.84888237804
 drone_load2_52: - 99999 y_(3,_5,_0) - w_(3,_0) + w_(5,_0)
   >= -99994.84888237804
 drone_load2_53: - 99999 y_(3,_5,_1) - w_(3,_1) + w_(5,_1)
   >= -99994.84888237804
 drone_load2_54: - 99999 y_(1,_5,_0) - w_(1,_0) + w_(5,_0)
   >= -99994.84888237804
 drone_load2_55: - 99999 y_(1,_5,_1) - w_(1,_1) + w_(5,_1)
   >= -99994.84888237804
 drone_load2_56: - 99999 y_(6,_5,_0) + w_(5,_0) - w_(6,_0)
   >= -99994.84888237804
 drone_load2_57: - 99999 y_(6,_5,_1) + w_(5,_1) - w_(6,_1)
   >= -99994.84888237804
 drone_load2_58: - 99999 y_(0,_6,_0) - w_(0,_0) + w_(6,_0)
   >= -99998.99000000001
 drone_load2_59: - 99999 y_(0,_6,_1) - w_(0,_1) + w_(6,_1)
   >= -99998.99000000001
 drone_load2_60: - 99999 y_(1,_6,_0) - w_(1,_0) + w_(6,_0)
   >= -99998.99000000001
 drone_load2_61: - 99999 y_(1,_6,_1) - w_(1,_1) + w_(6,_1)
   >= -99998.99000000001
 drone_load2_62: - 99999 y_(2,_6,_0) - w_(2,_0) + w_(6,_0)
   >= -99998.99000000001
 drone_load2_63: - 99999 y_(2,_6,_1) - w_(2,_1) + w_(6,_1)
   >= -99998.99000000001
 drone_load2_64: - 99999 y_(3,_6,_0) - w_(3,_0) + w_(6,_0)
   >= -99998.99000000001
 drone_load2_65: - 99999 y_(3,_6,_1) - w_(3,_1) + w_(6,_1)
   >= -99998.99000000001
 drone_load2_66: - 99999 y_(5,_6,_0) - w_(5,_0) + w_(6,_0)
   >= -99998.99000000001
 drone_load2_67: - 99999 y_(5,_6,_1) - w_(5,_1) + w_(6,_1)
   >= -99998.99000000001
 drone_load2_68: - 99999 y_(4,_6,_0) - w_(4,_0) + w_(6,_0)
   >= -99998.99000000001
 drone_load2_69: - 99999 y_(4,_6,_1) - w_(4,_1) + w_(6,_1)
   >= -99998.99000000001
 drone_load3_70: v_(1,_0) <= 100
 drone_load3_71: v_(1,_1) <= 100
 drone_load3_72: v_(2,_0) <= 100
 drone_load3_73: v_(2,_1) <= 100
 drone_load3_74: v_(3,_0) <= 100
 drone_load3_75: v_(3,_1) <= 100
 drone_load3_76: v_(4,_0) <= 100
 drone_load3_77: v_(4,_1) <= 100
 drone_load3_78: v_(5,_0) <= 100
 drone_load3_79: v_(5,_1) <= 100
 drone_load4_80: - 99999 y_(0,_1,_0) - v_(0,_0) + v_(1,_0)
   >= -99996.72757540252
 drone_load4_81: - 99999 y_(0,_1,_1) - v_(0,_1) + v_(1,_1)
   >= -99996.72757540252
 drone_load4_82: - 99999 y_(2,_1,_0) + v_(1,_0) - v_(2,_0)
   >= -99996.72757540252
 drone_load4_83: - 99999 y_(2,_1,_1) + v_(1,_1) - v_(2,_1)
   >= -99996.72757540252
 drone_load4_84: - 99999 y_(3,_1,_0) + v_(1,_0) - v_(3,_0)
   >= -99996.72757540252
 drone_load4_85: - 99999 y_(3,_1,_1) + v_(1,_1) - v_(3,_1)
   >= -99996.72757540252
 drone_load4_86: - 99999 y_(6,_1,_0) + v_(1,_0) - v_(6,_0)
   >= -99996.72757540252
 drone_load4_87: - 99999 y_(6,_1,_1) + v_(1,_1) - v_(6,_1)
   >= -99996.72757540252
 drone_load4_88: - 99999 y_(5,_1,_0) + v_(1,_0) - v_(5,_0)
   >= -99996.72757540252
 drone_load4_89: - 99999 y_(5,_1,_1) + v_(1,_1) - v_(5,_1)
   >= -99996.72757540252
 drone_load4_90: - 99999 y_(0,_2,_0) - v_(0,_0) + v_(2,_0)
   >= -99996.86080398146
 drone_load4_91: - 99999 y_(0,_2,_1) - v_(0,_1) + v_(2,_1)
   >= -99996.86080398146
 drone_load4_92: - 99999 y_(1,_2,_0) - v_(1,_0) + v_(2,_0)
   >= -99996.86080398146
 drone_load4_93: - 99999 y_(1,_2,_1) - v_(1,_1) + v_(2,_1)
   >= -99996.86080398146
 drone_load4_94: - 99999 y_(3,_2,_0) + v_(2,_0) - v_(3,_0)
   >= -99996.86080398146
 drone_load4_95: - 99999 y_(3,_2,_1) + v_(2,_1) - v_(3,_1)
   >= -99996.86080398146
 drone_load4_96: - 99999 y_(5,_2,_0) + v_(2,_0) - v_(5,_0)
   >= -99996.86080398146
 drone_load4_97: - 99999 y_(5,_2,_1) + v_(2,_1) - v_(5,_1)
   >= -99996.86080398146
 drone_load4_98: - 99999 y_(6,_2,_0) + v_(2,_0) - v_(6,_0)
   >= -99996.86080398146
 drone_load4_99: - 99999 y_(6,_2,_1) + v_(2,_1) - v_(6,_1)
   >= -99996.86080398146
 drone_load4_100: - 99999 y_(0,_3,_0) - v_(0,_0) + v_(3,_0)
   >= -99997.41080981935
 drone_load4_101: - 99999 y_(0,_3,_1) - v_(0,_1) + v_(3,_1)
   >= -99997.41080981935
 drone_load4_102: - 99999 y_(1,_3,_0) - v_(1,_0) + v_(3,_0)
   >= -99997.41080981935
 drone_load4_103: - 99999 y_(1,_3,_1) - v_(1,_1) + v_(3,_1)
   >= -99997.41080981935
 drone_load4_104: - 99999 y_(2,_3,_0) - v_(2,_0) + v_(3,_0)
   >= -99997.41080981935
 drone_load4_105: - 99999 y_(2,_3,_1) - v_(2,_1) + v_(3,_1)
   >= -99997.41080981935
 drone_load4_106: - 99999 y_(5,_3,_0) + v_(3,_0) - v_(5,_0)
   >= -99997.41080981935
 drone_load4_107: - 99999 y_(5,_3,_1) + v_(3,_1) - v_(5,_1)
   >= -99997.41080981935
 drone_load4_108: - 99999 y_(6,_3,_0) + v_(3,_0) - v_(6,_0)
   >= -99997.41080981935
 drone_load4_109: - 99999 y_(6,_3,_1) + v_(3,_1) - v_(6,_1)
   >= -99997.41080981935
 drone_load4_110: - 99999 y_(4,_3,_0) + v_(3,_0) - v_(4,_0)
   >= -99997.41080981935
 drone_load4_111: - 99999 y_(4,_3,_1) + v_(3,_1) - v_(4,_1)
   >= -99997.41080981935
 drone_load4_112: - 99999 y_(0,_4,_0) - v_(0,_0) + v_(4,_0)
   >= -99996.52785491358
 drone_load4_113: - 99999 y_(0,_4,_1) - v_(0,_1) + v_(4,_1)
   >= -99996.52785491358
 drone_load4_114: - 99999 y_(3,_4,_0) - v_(3,_0) + v_(4,_0)
   >= -99996.52785491358
 drone_load4_115: - 99999 y_(3,_4,_1) - v_(3,_1) + v_(4,_1)
   >= -99996.52785491358
 drone_load4_116: - 99999 y_(6,_4,_0) + v_(4,_0) - v_(6,_0)
   >= -99996.52785491358
 drone_load4_117: - 99999 y_(6,_4,_1) + v_(4,_1) - v_(6,_1)
   >= -99996.52785491358
 drone_load4_118: - 99999 y_(0,_5,_0) - v_(0,_0) + v_(5,_0)
   >= -99997.28282719292
 drone_load4_119: - 99999 y_(0,_5,_1) - v_(0,_1) + v_(5,_1)
   >= -99997.28282719292
 drone_load4_120: - 99999 y_(2,_5,_0) - v_(2,_0) + v_(5,_0)
   >= -99997.28282719292
 drone_load4_121: - 99999 y_(2,_5,_1) - v_(2,_1) + v_(5,_1)
   >= -99997.28282719292
 drone_load4_122: - 99999 y_(3,_5,_0) - v_(3,_0) + v_(5,_0)
   >= -99997.28282719292
 drone_load4_123: - 99999 y_(3,_5,_1) - v_(3,_1) + v_(5,_1)
   >= -99997.28282719292
 drone_load4_124: - 99999 y_(1,_5,_0) - v_(1,_0) + v_(5,_0)
   >= -99997.28282719292
 drone_load4_125: - 99999 y_(1,_5,_1) - v_(1,_1) + v_(5,_1)
   >= -99997.28282719292
 drone_load4_126: - 99999 y_(6,_5,_0) + v_(5,_0) - v_(6,_0)
   >= -99997.28282719292
 drone_load4_127: - 99999 y_(6,_5,_1) + v_(5,_1) - v_(6,_1)
   >= -99997.28282719292
 drone_load4_128: - 99999 y_(0,_6,_0) - v_(0,_0) + v_(6,_0)
   >= -99998.99000000001
 drone_load4_129: - 99999 y_(0,_6,_1) - v_(0,_1) + v_(6,_1)
   >= -99998.99000000001
 drone_load4_130: - 99999 y_(1,_6,_0) - v_(1,_0) + v_(6,_0)
   >= -99998.99000000001
 drone_load4_131: - 99999 y_(1,_6,_1) - v_(1,_1) + v_(6,_1)
   >= -99998.99000000001
 drone_load4_132: - 99999 y_(2,_6,_0) - v_(2,_0) + v_(6,_0)
   >= -99998.99000000001
 drone_load4_133: - 99999 y_(2,_6,_1) - v_(2,_1) + v_(6,_1)
   >= -99998.99000000001
 drone_load4_134: - 99999 y_(3,_6,_0) - v_(3,_0) + v_(6,_0)
   >= -99998.99000000001
 drone_load4_135: - 99999 y_(3,_6,_1) - v_(3,_1) + v_(6,_1)
   >= -99998.99000000001
 drone_load4_136: - 99999 y_(5,_6,_0) - v_(5,_0) + v_(6,_0)
   >= -99998.99000000001
 drone_load4_137: - 99999 y_(5,_6,_1) - v_(5,_1) + v_(6,_1)
   >= -99998.99000000001
 drone_load4_138: - 99999 y_(4,_6,_0) - v_(4,_0) + v_(6,_0)
   >= -99998.99000000001
 drone_load4_139: - 99999 y_(4,_6,_1) - v_(4,_1) + v_(6,_1)
   >= -99998.99000000001
 sync1_0: - 99999 y_(1,_7,_0) - ad_(1,_0) + ad_(7,_0) >= -99993
 sync1_1: - 99999 y_(1,_7,_1) - ad_(1,_1) + ad_(7,_1) >= -99993
 sync1_2: - 99999 y_(1,_2,_0) - ad_(1,_0) + ad_(2,_0) >= -99993
 sync1_3: - 99999 y_(1,_2,_1) - ad_(1,_1) + ad_(2,_1) >= -99993
 sync1_4: - 99999 y_(1,_3,_0) - ad_(1,_0) + ad_(3,_0) >= -99992
 sync1_5: - 99999 y_(1,_3,_1) - ad_(1,_1) + ad_(3,_1) >= -99992
 sync1_6: - 99999 y_(1,_6,_0) - ad_(1,_0) + ad_(6,_0) >= -99990
 sync1_7: - 99999 y_(1,_6,_1) - ad_(1,_1) + ad_(6,_1) >= -99990
 sync1_8: - 99999 y_(1,_5,_0) - ad_(1,_0) + ad_(5,_0) >= -99992
 sync1_9: - 99999 y_(1,_5,_1) - ad_(1,_1) + ad_(5,_1) >= -99992
 sync1_10: - 99999 y_(2,_7,_0) - ad_(2,_0) + ad_(7,_0) >= -99990
 sync1_11: - 99999 y_(2,_7,_1) - ad_(2,_1) + ad_(7,_1) >= -99990
 sync1_12: - 99999 y_(2,_1,_0) + ad_(1,_0) - ad_(2,_0) >= -99993
 sync1_13: - 99999 y_(2,_1,_1) + ad_(1,_1) - ad_(2,_1) >= -99993
 sync1_14: - 99999 y_(2,_3,_0) - ad_(2,_0) + ad_(3,_0) >= -99991
 sync1_15: - 99999 y_(2,_3,_1) - ad_(2,_1) + ad_(3,_1) >= -99991
 sync1_16: - 99999 y_(2,_5,_0) - ad_(2,_0) + ad_(5,_0) >= -99992
 sync1_17: - 99999 y_(2,_5,_1) - ad_(2,_1) + ad_(5,_1) >= -99992
 sync1_18: - 99999 y_(2,_6,_0) - ad_(2,_0) + ad_(6,_0) >= -99998
 sync1_19: - 99999 y_(2,_6,_1) - ad_(2,_1) + ad_(6,_1) >= -99998
 sync1_20: - 99999 y_(3,_7,_0) - ad_(3,_0) + ad_(7,_0) >= -99993
 sync1_21: - 99999 y_(3,_7,_1) - ad_(3,_1) + ad_(7,_1) >= -99993
 sync1_22: - 99999 y_(3,_1,_0) + ad_(1,_0) - ad_(3,_0) >= -99992
 sync1_23: - 99999 y_(3,_1,_1) + ad_(1,_1) - ad_(3,_1) >= -99992
 sync1_24: - 99999 y_(3,_2,_0) + ad_(2,_0) - ad_(3,_0) >= -99991
 sync1_25: - 99999 y_(3,_2,_1) + ad_(2,_1) - ad_(3,_1) >= -99991
 sync1_26: - 99999 y_(3,_5,_0) - ad_(3,_0) + ad_(5,_0) >= -99990
 sync1_27: - 99999 y_(3,_5,_1) - ad_(3,_1) + ad_(5,_1) >= -99990
 sync1_28: - 99999 y_(3,_6,_0) - ad_(3,_0) + ad_(6,_0) >= -99998.3
 sync1_29: - 99999 y_(3,_6,_1) - ad_(3,_1) + ad_(6,_1) >= -99998.3
 sync1_30: - 99999 y_(3,_4,_0) - ad_(3,_0) + ad_(4,_0) >= -99989
 sync1_31: - 99999 y_(3,_4,_1) - ad_(3,_1) + ad_(4,_1) >= -99989
 sync1_32: - 99999 y_(4,_7,_0) - ad_(4,_0) + ad_(7,_0) >= -99992
 sync1_33: - 99999 y_(4,_7,_1) - ad_(4,_1) + ad_(7,_1) >= -99992
 sync1_34: - 99999 y_(4,_3,_0) + ad_(3,_0) - ad_(4,_0) >= -99989
 sync1_35: - 99999 y_(4,_3,_1) + ad_(3,_1) - ad_(4,_1) >= -99989
 sync1_36: - 99999 y_(4,_6,_0) - ad_(4,_0) + ad_(6,_0) >= -99998.3
 sync1_37: - 99999 y_(4,_6,_1) - ad_(4,_1) + ad_(6,_1) >= -99998.3
 sync1_38: - 99999 y_(5,_7,_0) - ad_(5,_0) + ad_(7,_0) >= -99994
 sync1_39: - 99999 y_(5,_7,_1) - ad_(5,_1) + ad_(7,_1) >= -99994
 sync1_40: - 99999 y_(5,_2,_0) + ad_(2,_0) - ad_(5,_0) >= -99992
 sync1_41: - 99999 y_(5,_2,_1) + ad_(2,_1) - ad_(5,_1) >= -99992
 sync1_42: - 99999 y_(5,_3,_0) + ad_(3,_0) - ad_(5,_0) >= -99990
 sync1_43: - 99999 y_(5,_3,_1) + ad_(3,_1) - ad_(5,_1) >= -99990
 sync1_44: - 99999 y_(5,_1,_0) + ad_(1,_0) - ad_(5,_0) >= -99992
 sync1_45: - 99999 y_(5,_1,_1) + ad_(1,_1) - ad_(5,_1) >= -99992
 sync1_46: - 99999 y_(5,_6,_0) - ad_(5,_0) + ad_(6,_0) >= -99998.5
 sync1_47: - 99999 y_(5,_6,_1) - ad_(5,_1) + ad_(6,_1) >= -99998.5
 sync1_48: - 99999 y_(6,_7,_0) - ad_(6,_0) + ad_(7,_0) >= -99990
 sync1_49: - 99999 y_(6,_7,_1) - ad_(6,_1) + ad_(7,_1) >= -99990
 sync1_50: - 99999 y_(6,_1,_0) + ad_(1,_0) - ad_(6,_0) >= -99990
 sync1_51: - 99999 y_(6,_1,_1) + ad_(1,_1) - ad_(6,_1) >= -99990
 sync1_52: - 99999 y_(6,_2,_0) + ad_(2,_0) - ad_(6,_0) >= -99998
 sync1_53: - 99999 y_(6,_2,_1) + ad_(2,_1) - ad_(6,_1) >= -99998
 sync1_54: - 99999 y_(6,_3,_0) + ad_(3,_0) - ad_(6,_0) >= -99998.3
 sync1_55: - 99999 y_(6,_3,_1) + ad_(3,_1) - ad_(6,_1) >= -99998.3
 sync1_56: - 99999 y_(6,_5,_0) + ad_(5,_0) - ad_(6,_0) >= -99998.5
 sync1_57: - 99999 y_(6,_5,_1) + ad_(5,_1) - ad_(6,_1) >= -99998.5
 sync1_58: - 99999 y_(6,_4,_0) + ad_(4,_0) - ad_(6,_0) >= -99998.3
 sync1_59: - 99999 y_(6,_4,_1) + ad_(4,_1) - ad_(6,_1) >= -99998.3
 sync1_60: - 99999 y_(0,_1,_0) - ad_(0,_0) + ad_(1,_0) >= -99993
 sync1_61: - 99999 y_(0,_1,_1) - ad_(0,_1) + ad_(1,_1) >= -99993
 sync1_62: - 99999 y_(0,_2,_0) - ad_(0,_0) + ad_(2,_0) >= -99992
 sync1_63: - 99999 y_(0,_2,_1) - ad_(0,_1) + ad_(2,_1) >= -99992
 sync1_64: - 99999 y_(0,_3,_0) - ad_(0,_0) + ad_(3,_0) >= -99994
 sync1_65: - 99999 y_(0,_3,_1) - ad_(0,_1) + ad_(3,_1) >= -99994
 sync1_66: - 99999 y_(0,_4,_0) - ad_(0,_0) + ad_(4,_0) >= -99992
 sync1_67: - 99999 y_(0,_4,_1) - ad_(0,_1) + ad_(4,_1) >= -99992
 sync1_68: - 99999 y_(0,_5,_0) - ad_(0,_0) + ad_(5,_0) >= -99991
 sync1_69: - 99999 y_(0,_5,_1) - ad_(0,_1) + ad_(5,_1) >= -99991
 sync1_70: - 99999 y_(0,_6,_0) - ad_(0,_0) + ad_(6,_0) >= -99991
 sync1_71: - 99999 y_(0,_6,_1) - ad_(0,_1) + ad_(6,_1) >= -99991
Bounds
 Constant = 1
Binaries
 y_(0,_1,_0) y_(0,_1,_1) y_(0,_2,_0) y_(0,_2,_1) y_(0,_3,_0) y_(0,_3,_1)
 y_(0,_4,_0) y_(0,_4,_1) y_(0,_5,_0) y_(0,_5,_1) y_(0,_6,_0) y_(0,_6,_1)
 y_(1,_7,_0) y_(1,_7,_1) y_(1,_2,_0) y_(1,_2,_1) y_(1,_3,_0) y_(1,_3,_1)
 y_(1,_6,_0) y_(1,_6,_1) y_(1,_5,_0) y_(1,_5,_1) y_(2,_7,_0) y_(2,_7,_1)
 y_(2,_1,_0) y_(2,_1,_1) y_(2,_3,_0) y_(2,_3,_1) y_(2,_5,_0) y_(2,_5,_1)
 y_(2,_6,_0) y_(2,_6,_1) y_(3,_7,_0) y_(3,_7,_1) y_(3,_1,_0) y_(3,_1,_1)
 y_(3,_2,_0) y_(3,_2,_1) y_(3,_5,_0) y_(3,_5,_1) y_(3,_6,_0) y_(3,_6,_1)
 y_(3,_4,_0) y_(3,_4,_1) y_(4,_7,_0) y_(4,_7,_1) y_(4,_3,_0) y_(4,_3,_1)
 y_(4,_6,_0) y_(4,_6,_1) y_(5,_7,_0) y_(5,_7,_1) y_(5,_2,_0) y_(5,_2,_1)
 y_(5,_3,_0) y_(5,_3,_1) y_(5,_1,_0) y_(5,_1,_1) y_(5,_6,_0) y_(5,_6,_1)
 y_(6,_7,_0) y_(6,_7,_1) y_(6,_1,_0) y_(6,_1,_1) y_(6,_2,_0) y_(6,_2,_1)
 y_(6,_3,_0) y_(6,_3,_1) y_(6,_5,_0) y_(6,_5,_1) y_(6,_4,_0) y_(6,_4,_1)
 u_6
End
